16  430559
1   5   1    10    19    35    54    
2   5   2    12    21    42    63    
3   5   36    57    34    49    4    
4   5   32    33    37    73    72    
5   5   78    13    22    43    64    
6   5   56    67    80    74    68    
7   6   26    41    58    59    69    45    
8   5   61    48    79    23    65    
9   6   11    31    39    50    55    20    
10   5   3    14    24    44    75    
11   5   6    15    25    46    77    
12   5   76    62    53    40    60    
13   4   7    16    27    47    
14   4   8    17    29    51    
15   4   9    18    30    52    
16   6   66    71    28    38    70    5    

